32	0

0	1	2
5	1	3
7	1	4
2	2	5	7
2	2	6	9
7	2	8	10
8	2	8	9
9	1	11
8	1	10
2	1	11
6	1	12
1	2	13	14
2	1	15
1	1	15
2	1	16
6	1	17
6	1	18
10	1	19
3	2	20	21
7	1	22
1	1	22
10	1	23
9	1	24
10	2	25	26
10	2	27	28
5	2	27	28
4	2	29	30
6	1	29
4	1	31
4	1	31
6	1	32
0	0
